1633071600
1633104000
1633330800
1633348800
1633417200
1633437900
1633503600
1633521600
1633590000
1633608000
1633676400
1633686600
1633690200
1633698000
1633341209
1633356420
1633527000
1633530600
1633935600
1633953600
1634022000
1634040000
1634108400
1634126400
1634194800
1634212800
1634540400
1634558400
1634626800
1634644800
1634713200
1634731200
1634799600
1634817600
1634886000
1634896200
1634899800
1634907600
1635145200
1635163200
1635231600
1635249600
1635318000
1635336000
1635404400
1635422400
1635490800
1635508800
